objective value:                               -70084
C0110                                               1 	(obj:-963)
C0011                                               1 	(obj:-1127)
C0012                                               1 	(obj:-1025)
C0013                                               1 	(obj:-805)
C0014                                               1 	(obj:-1000)
C0015                                               1 	(obj:-626)
C0016                                               1 	(obj:-997)
C0017                                               1 	(obj:-914)
C0018                                               1 	(obj:-1633)
C0019                                               1 	(obj:-1704)
C0020                                               1 	(obj:-1790)
C0021                                               1 	(obj:-754)
C0022                                               1 	(obj:-1157)
C0023                                               1 	(obj:-1560)
C0024                                               1 	(obj:-1473)
C0025                                               1 	(obj:-1358)
C0026                                               1 	(obj:-850)
C0027                                               1 	(obj:-1113)
C0028                                               1 	(obj:-642)
C0029                                               1 	(obj:-1285)
C0030                                               1 	(obj:-923)
C0031                                               1 	(obj:-684)
C0032                                               1 	(obj:-1538)
C0033                                               1 	(obj:-1363)
C0034                                               1 	(obj:-1631)
C0035                                               1 	(obj:-1152)
C0036                                               1 	(obj:-882)
C0037                                               1 	(obj:-1085)
C0038                                               1 	(obj:-1389)
C0039                                               1 	(obj:-1289)
C0040                                               1 	(obj:-1105)
C0041                                               1 	(obj:-1309)
C0042                                               1 	(obj:-1231)
C0043                                               1 	(obj:-789)
C0044                                               1 	(obj:-1328)
C0045                                               1 	(obj:-1332)
C0046                                               1 	(obj:-886)
C0047                                               1 	(obj:-1132)
C0048                                               1 	(obj:-1541)
C0049                                               1 	(obj:-1470)
C0050                                               1 	(obj:-1328)
C0051                                               1 	(obj:-1382)
C0052                                               1 	(obj:-1652)
C0053                                               1 	(obj:-1191)
C0054                                               1 	(obj:-1544)
C0055                                               1 	(obj:-1246)
C0056                                               1 	(obj:-1180)
C0057                                               1 	(obj:-1638)
C0058                                               1 	(obj:-1398)
C0059                                               1 	(obj:-1514)
C0060                                               1 	(obj:-933)
C0061                                               1 	(obj:-1226)
C0062                                               1 	(obj:-1049)
C0063                                               1 	(obj:-1037)
C0064                                               1 	(obj:-1563)
C0065                                               1 	(obj:-1394)
C0066                                               1 	(obj:-1699)
C0067                                               1 	(obj:-1485)
C0068                                               1 	(obj:-600)
C0069                                               1 	(obj:-1252)
C0070                                               1 	(obj:-1740)
C0071                                               1 	(obj:-795)
C0072                                               1 	(obj:-1285)
C0073                                               1 	(obj:-1306)
C0074                                               1 	(obj:-983)
C0075                                               1 	(obj:-1378)
C0076                                               1 	(obj:-1192)
C0077                                               1 	(obj:-1220)
C0078                                               1 	(obj:-1664)
C0079                                               1 	(obj:-646)
C0080                                               1 	(obj:-1124)
C0081                                               1 	(obj:-609)
C0082                                               1 	(obj:-812)
C0083                                               1 	(obj:-743)
C0084                                               1 	(obj:-1099)
C0085                                               1 	(obj:-1038)
C0086                                               1 	(obj:-870)
C0087                                               1 	(obj:-928)
C0088                                               1 	(obj:-926)
C0089                                               1 	(obj:-549)
C0090                                               1 	(obj:-1294)
C0091                                               1 	(obj:-1027)
C0092                                               1 	(obj:-1376)
C0093                                               1 	(obj:-850)
C0094                                               1 	(obj:-970)
C0095                                               1 	(obj:-719)
C0096                                               1 	(obj:-1057)
C0097                                               1 	(obj:-909)
C0098                                               1 	(obj:-1051)
C0099                                               1 	(obj:-1119)
C0100                                               1 	(obj:-1042)
C0101                                               1 	(obj:-1278)
C0102                                               1 	(obj:-1266)
C0103                                               1 	(obj:-1374)
C0104                                               1 	(obj:-1122)
C0105                                               1 	(obj:-1437)
C0106                                               1 	(obj:-1595)
C0107                                               1 	(obj:-1422)
C0108                                               1 	(obj:-540)
C0109                                               1 	(obj:-858)
C0259                                               3 	(obj:100)
C0257                                               6 	(obj:100)
C0256                                               8 	(obj:100)
C0255                                               5 	(obj:100)
C0254                                               2 	(obj:100)
C0253                                               4 	(obj:100)
C0252                                               4 	(obj:100)
C0251                                               4 	(obj:100)
C0250                                               1 	(obj:100)
C0249                                               6 	(obj:100)
C0248                                               4 	(obj:100)
C0247                                               1 	(obj:100)
C0246                                               1 	(obj:100)
C0245                                               2 	(obj:100)
C0244                                               4 	(obj:100)
C0243                                               3 	(obj:100)
C0242                                               5 	(obj:100)
C0241                                               5 	(obj:100)
C0240                                               5 	(obj:100)
C0238                                               3 	(obj:100)
C0237                                               3 	(obj:100)
C0236                                               1 	(obj:100)
C0235                                               3 	(obj:100)
C0234                                               4 	(obj:100)
C0233                                               2 	(obj:100)
C0232                                               1 	(obj:100)
C0230                                               3 	(obj:100)
C0228                                               7 	(obj:100)
C0227                                               3 	(obj:100)
C0226                                               5 	(obj:100)
C0225                                               6 	(obj:100)
C0224                                               2 	(obj:100)
C0223                                               6 	(obj:100)
C0222                                               3 	(obj:100)
C0221                                               1 	(obj:100)
C0220                                               8 	(obj:100)
C0219                                               4 	(obj:100)
C0217                                               8 	(obj:100)
C0216                                               8 	(obj:100)
C0215                                               8 	(obj:100)
C0214                                               8 	(obj:100)
C0213                                               2 	(obj:100)
C0212                                               3 	(obj:100)
C0211                                               7 	(obj:100)
C0210                                               4 	(obj:100)
C0209                                               7 	(obj:100)
C0208                                               6 	(obj:100)
C0207                                               8 	(obj:100)
C0206                                               5 	(obj:100)
C0205                                               7 	(obj:100)
C0204                                               7 	(obj:100)
C0203                                               2 	(obj:100)
C0202                                               7 	(obj:100)
C0201                                               5 	(obj:100)
C0200                                               6 	(obj:100)
C0199                                               6 	(obj:100)
C0198                                               6 	(obj:100)
C0197                                               2 	(obj:100)
C0196                                               1 	(obj:100)
C0195                                               7 	(obj:100)
C0194                                               8 	(obj:100)
C0193                                               1 	(obj:100)
C0192                                               5 	(obj:100)
C0191                                               5 	(obj:100)
C0190                                               2 	(obj:100)
C0189                                               5 	(obj:100)
C0188                                               4 	(obj:100)
C0187                                               2 	(obj:100)
C0186                                               1 	(obj:100)
C0185                                               4 	(obj:100)
C0184                                               7 	(obj:100)
C0183                                               6 	(obj:100)
C0182                                               6 	(obj:100)
C0181                                               1 	(obj:100)
C0180                                               4 	(obj:100)
C0179                                               4 	(obj:100)
C0177                                               4 	(obj:100)
C0176                                               1 	(obj:100)
C0175                                               5 	(obj:100)
C0174                                               7 	(obj:100)
C0173                                               7 	(obj:100)
C0172                                               4 	(obj:100)
C0170                                               8 	(obj:100)
C0169                                               8 	(obj:100)
C0168                                               8 	(obj:100)
C0167                                               3 	(obj:100)
C0166                                               3 	(obj:100)
C0165                                               1 	(obj:100)
C0164                                               1 	(obj:100)
C0163                                               3 	(obj:100)
C0162                                               4 	(obj:100)
C0161                                               5 	(obj:100)
C0260                                               1 	(obj:100)
C0005                                              19 	(obj:113)
C0006                                              18 	(obj:116)
C0010                                              12 	(obj:120)
